5 17 1
6.0 2.0 1.0 1.0 2.0 1.0 3.0 3.0 1.45 4.0 1.45 5.0 2.331 3.0 6.0 1.815 7.0 2.245 8.0 2.245 1.0 11.0 0.642 3.0 12.0 0.25 13.0 0.42 14.0 0.42 3.0 15.0 2.202 16.0 2.202 17.0 0.629
5.0 2.0 1.0 1.0 2.0 1.0 2.0 3.0 1.45 4.0 1.45 3.0 6.0 1.0 7.0 1.0 8.0 1.0 1.0 11.0 0.766 3.0 12.0 0.25 13.0 0.42 14.0 0.42
6.0 2.0 1.0 1.0 2.0 1.0 2.0 3.0 1.45 4.0 1.45 3.0 6.0 1.0 7.0 1.0 8.0 1.0 2.0 9.0 0.371 10.0 0.371 3.0 12.0 0.75 13.0 1.26 14.0 1.26 3.0 15.0 0.364 16.0 0.364 17.0 0.104
6.0 2.0 1.0 1.0 2.0 1.0 2.0 3.0 1.45 4.0 1.45 3.0 6.0 1.0 7.0 1.0 8.0 1.0 1.0 11.0 0.648 3.0 12.0 0.5 13.0 0.84 14.0 0.84 3.0 15.0 2.222 16.0 2.222 17.0 0.635
6.0 2.0 1.0 1.0 2.0 1.0 2.0 3.0 1.45 4.0 1.45 3.0 6.0 1.0 7.0 1.0 8.0 1.0 2.0 9.0 0.247 10.0 0.247 3.0 12.0 0.25 13.0 0.42 14.0 0.42 3.0 15.0 0.242 16.0 0.242 17.0 0.069

